NAME          
ROWS
 N  OBJ
 L  c1
 L  c2
 L  c3
 L  c4
COLUMNS
    MARKER    'MARKER'                 'INTORG'
    x[1]      c1        192
    x[1]      c2        32
    x[1]      c3        203
    x[1]      c4        486
    x[1]      OBJ       -260
    x[2]      c1        102
    x[2]      c2        652
    x[2]      c3        496
    x[2]      c4        67
    x[2]      OBJ       -807
    x[3]      c1        757
    x[3]      c2        87
    x[3]      c3        728
    x[3]      c4        90
    x[3]      OBJ       -134
    x[4]      c1        633
    x[4]      c2        794
    x[4]      c3        554
    x[4]      c4        539
    x[4]      OBJ       -729
    x[5]      c1        533
    x[5]      c2        628
    x[5]      c3        879
    x[5]      c4        583
    x[5]      OBJ       -885
    x[6]      c1        810
    x[6]      c2        901
    x[6]      c3        441
    x[6]      c4        178
    x[6]      OBJ       -188
    x[7]      c1        332
    x[7]      c2        872
    x[7]      c3        703
    x[7]      c4        358
    x[7]      OBJ       -147
    x[8]      c1        61
    x[8]      c2        326
    x[8]      c3        826
    x[8]      c4        497
    x[8]      OBJ       -252
    x[9]      c1        68
    x[9]      c2        264
    x[9]      c3        319
    x[9]      c4        618
    x[9]      OBJ       -608
    x[10]     c1        83
    x[10]     c2        462
    x[10]     c3        199
    x[10]     c4        226
    x[10]     OBJ       -676
    x[11]     c1        846
    x[11]     c2        931
    x[11]     c3        513
    x[11]     c4        419
    x[11]     OBJ       -236
    x[12]     c1        301
    x[12]     c2        962
    x[12]     c3        933
    x[12]     c4        119
    x[12]     OBJ       -920
    x[13]     c1        378
    x[13]     c2        369
    x[13]     c3        929
    x[13]     c4        273
    x[13]     OBJ       -177
    x[14]     c1        993
    x[14]     c2        471
    x[14]     c3        754
    x[14]     c4        290
    x[14]     OBJ       -915
    x[15]     c1        998
    x[15]     c2        636
    x[15]     c3        605
    x[15]     c4        468
    x[15]     OBJ       -962
    x[16]     c1        545
    x[16]     c2        659
    x[16]     c3        871
    x[16]     c4        196
    x[16]     OBJ       -233
    x[17]     c1        668
    x[17]     c2        318
    x[17]     c3        611
    x[17]     c4        118
    x[17]     OBJ       -843
    x[18]     c1        898
    x[18]     c2        867
    x[18]     c3        83
    x[18]     c4        885
    x[18]     OBJ       -956
    x[19]     c1        970
    x[19]     c2        929
    x[19]     c3        940
    x[19]     c4        64
    x[19]     OBJ       -58
    x[20]     c1        79
    x[20]     c2        255
    x[20]     c3        860
    x[20]     c4        956
    x[20]     OBJ       -967
    x[21]     c1        164
    x[21]     c2        692
    x[21]     c3        319
    x[21]     c4        425
    x[21]     OBJ       -565
    x[22]     c1        461
    x[22]     c2        735
    x[22]     c3        451
    x[22]     c4        681
    x[22]     OBJ       -516
    x[23]     c1        247
    x[23]     c2        448
    x[23]     c3        485
    x[23]     c4        794
    x[23]     OBJ       -575
    x[24]     c1        642
    x[24]     c2        324
    x[24]     c3        388
    x[24]     c4        132
    x[24]     OBJ       -352
    x[25]     c1        298
    x[25]     c2        622
    x[25]     c3        647
    x[25]     c4        718
    x[25]     OBJ       -433
    x[26]     c1        786
    x[26]     c2        842
    x[26]     c3        60
    x[26]     c4        352
    x[26]     OBJ       -850
    x[27]     c1        530
    x[27]     c2        605
    x[27]     c3        277
    x[27]     c4        344
    x[27]     OBJ       -904
    x[28]     c1        938
    x[28]     c2        757
    x[28]     c3        13
    x[28]     c4        930
    x[28]     OBJ       -330
    x[29]     c1        537
    x[29]     c2        671
    x[29]     c3        852
    x[29]     c4        462
    x[29]     OBJ       -359
    x[30]     c1        695
    x[30]     c2        912
    x[30]     c3        952
    x[30]     c4        554
    x[30]     OBJ       -893
    x[31]     c1        279
    x[31]     c2        876
    x[31]     c3        74
    x[31]     c4        816
    x[31]     OBJ       -257
    x[32]     c1        880
    x[32]     c2        799
    x[32]     c3        970
    x[32]     c4        671
    x[32]     OBJ       -581
    x[33]     c1        362
    x[33]     c2        970
    x[33]     c3        313
    x[33]     c4        410
    x[33]     OBJ       -601
    x[34]     c1        723
    x[34]     c2        667
    x[34]     c3        549
    x[34]     c4        735
    x[34]     OBJ       -781
    x[35]     c1        527
    x[35]     c2        970
    x[35]     c3        645
    x[35]     c4        37
    x[35]     OBJ       -172
    x[36]     c1        514
    x[36]     c2        310
    x[36]     c3        550
    x[36]     c4        53
    x[36]     OBJ       -117
    x[37]     c1        94
    x[37]     c2        580
    x[37]     c3        83
    x[37]     c4        90
    x[37]     OBJ       -397
    x[38]     c1        514
    x[38]     c2        954
    x[38]     c3        229
    x[38]     c4        347
    x[38]     OBJ       -141
    x[39]     c1        588
    x[39]     c2        924
    x[39]     c3        903
    x[39]     c4        324
    x[39]     OBJ       -211
    x[40]     c1        320
    x[40]     c2        180
    x[40]     c3        590
    x[40]     c4        863
    x[40]     OBJ       -585
    x[41]     c1        730
    x[41]     c2        236
    x[41]     c3        446
    x[41]     c4        160
    x[41]     OBJ       -22
    x[42]     c1        90
    x[42]     c2        806
    x[42]     c3        730
    x[42]     c4        454
    x[42]     OBJ       -636
    x[43]     c1        730
    x[43]     c2        497
    x[43]     c3        200
    x[43]     c4        942
    x[43]     OBJ       -537
    x[44]     c1        29
    x[44]     c2        533
    x[44]     c3        354
    x[44]     c4        379
    x[44]     OBJ       -401
    x[45]     c1        821
    x[45]     c2        220
    x[45]     c3        283
    x[45]     c4        720
    x[45]     OBJ       -303
    x[46]     c1        189
    x[46]     c2        455
    x[46]     c3        813
    x[46]     c4        436
    x[46]     OBJ       -415
    x[47]     c1        993
    x[47]     c2        117
    x[47]     c3        611
    x[47]     c4        764
    x[47]     OBJ       -21
    x[48]     c1        313
    x[48]     c2        805
    x[48]     c3        24
    x[48]     c4        358
    x[48]     OBJ       -711
    x[49]     c1        391
    x[49]     c2        725
    x[49]     c3        75
    x[49]     c4        273
    x[49]     OBJ       -795
    x[50]     c1        798
    x[50]     c2        956
    x[50]     c3        813
    x[50]     c4        897
    x[50]     OBJ       -875
RHS
    rhs       c1        12715
    rhs       c2        15302
    rhs       c3        13073
    rhs       c4        11276
RANGES
BOUNDS
 BV bounds    x[1]
 BV bounds    x[2]
 BV bounds    x[3]
 BV bounds    x[4]
 BV bounds    x[5]
 BV bounds    x[6]
 BV bounds    x[7]
 BV bounds    x[8]
 BV bounds    x[9]
 BV bounds    x[10]
 BV bounds    x[11]
 BV bounds    x[12]
 BV bounds    x[13]
 BV bounds    x[14]
 BV bounds    x[15]
 BV bounds    x[16]
 BV bounds    x[17]
 BV bounds    x[18]
 BV bounds    x[19]
 BV bounds    x[20]
 BV bounds    x[21]
 BV bounds    x[22]
 BV bounds    x[23]
 BV bounds    x[24]
 BV bounds    x[25]
 BV bounds    x[26]
 BV bounds    x[27]
 BV bounds    x[28]
 BV bounds    x[29]
 BV bounds    x[30]
 BV bounds    x[31]
 BV bounds    x[32]
 BV bounds    x[33]
 BV bounds    x[34]
 BV bounds    x[35]
 BV bounds    x[36]
 BV bounds    x[37]
 BV bounds    x[38]
 BV bounds    x[39]
 BV bounds    x[40]
 BV bounds    x[41]
 BV bounds    x[42]
 BV bounds    x[43]
 BV bounds    x[44]
 BV bounds    x[45]
 BV bounds    x[46]
 BV bounds    x[47]
 BV bounds    x[48]
 BV bounds    x[49]
 BV bounds    x[50]
ENDATA
